Route #1: 33 34 54 74 96 25
Route #2: 8 3 46 44 30 37 73 58
Route #3: 39 48 27 49 97 65 35
Route #4: 6 13 59
Route #5: 31 86 12 80
Route #6: 26 66 79 43 29
Route #7: 21 42 23 16
Route #8: 88 38 7 50 15
Route #9: 90 99 100 63 72
Route #10: 45 68 89 41
Route #11: 81 95 57 22
Route #12: 2 71 55
Route #13: 36 47 32
Route #14: 94 76
Route #15: 87 10 93
Route #16: 70 17 56 77
Route #17: 84 52 82
Route #18: 83 61 60
Route #19: 53 92 51
Route #20: 67 85 91 69
Route #21: 75 14 5
Route #22: 20 98 28
Route #23: 19 11 40
Route #24: 101 62 24
Route #25: 64 78 4
Route #26: 18 9
Cost 53591
